Problem-1/casino.sol
# Objective value = 2094850
xF1_NB 0
xF1_DR 0
xF1_DOR 9
xF1_GP 27
xF1_HDD 0
xF1_ML 39
xF1_BJ 169
xF2_NB 200
xF2_DR 150
xF2_DOR 0
xF2_GP 0
xF2_HDD 0
xF2_ML 0
xF2_BJ 81
xF3_NB 0
xF3_DR 0
xF3_DOR 91
xF3_GP 0
xF3_HDD 0
xF3_ML 0
xF3_BJ 0
xF4_NB 0
xF4_DR 0
xF4_DOR 0
xF4_GP 0
xF4_HDD 125
xF4_ML 61
xF4_BJ 0
